c description: Random 3-CNF over 21 variables and 89 clauses
c generator: CNFgen (0.9.2)
c copyright: (C) 2012-2022 Massimo Lauria <massimo.lauria@uniroma1.it>
c url: https://massimolauria.net/cnfgen
c command line: cnfgen --output CNF_4.28/21_bit_89_924.cnf randkcnf 3 21 89
c
p cnf 21 89
6 11 -17 0
-2 11 -21 0
-6 -9 20 0
-4 -15 -20 0
5 -6 17 0
2 4 -5 0
-4 -10 -19 0
11 14 -17 0
5 -8 12 0
-1 -4 -12 0
-8 17 -21 0
10 14 17 0
3 12 -18 0
6 7 16 0
1 -16 -18 0
-2 -4 13 0
12 -19 -20 0
-7 -8 11 0
-10 -18 -19 0
4 -9 19 0
-2 -9 11 0
-1 5 -20 0
-7 8 19 0
2 -4 18 0
-7 -12 -14 0
-8 15 21 0
2 6 -11 0
-3 10 21 0
-3 12 19 0
-11 -13 21 0
3 -9 13 0
-6 10 -21 0
6 -17 -21 0
-4 6 8 0
-1 13 14 0
-8 12 14 0
1 -7 -10 0
10 14 -17 0
-15 -20 -21 0
2 8 -13 0
2 -4 11 0
1 11 20 0
1 -12 -20 0
-8 9 -10 0
1 -10 -21 0
8 -9 -15 0
-13 -17 18 0
-3 6 15 0
1 -4 16 0
-3 -5 -19 0
-1 -2 8 0
8 -9 -20 0
-13 15 18 0
-8 12 -13 0
-7 12 -13 0
8 -9 11 0
-7 15 17 0
-6 -13 16 0
-13 -16 20 0
-8 11 -14 0
-3 -4 -13 0
1 8 -10 0
6 19 21 0
5 9 19 0
1 4 8 0
3 12 -17 0
-9 -10 -11 0
-6 10 15 0
-5 8 20 0
3 8 18 0
3 -10 -11 0
-2 -10 18 0
5 -10 18 0
-1 4 14 0
-4 -8 20 0
-1 11 14 0
-4 -5 6 0
5 10 -19 0
2 3 -16 0
-5 -14 21 0
2 7 -10 0
4 14 19 0
1 -2 20 0
-3 -6 21 0
2 16 -19 0
-3 -8 -20 0
13 -18 -19 0
-2 -5 -9 0
1 -3 -7 0
